
Gurobi 8.1.1 (mac64, Python) logging started Wed Jul 24 13:48:46 2019

Academic license - for non-commercial use only
Optimize a model with 16 rows, 12 columns and 36 nonzeros
Coefficient statistics:
  Matrix range     [1e+00, 1e+00]
  Objective range  [1e+01, 8e+01]
  Bounds range     [0e+00, 0e+00]
  RHS range        [1e+01, 1e+02]
Presolve removed 16 rows and 12 columns
Presolve time: 0.01s
Presolve: All rows and columns removed
Iteration    Objective       Primal Inf.    Dual Inf.      Time
       0    5.5000000e+03   0.000000e+00   0.000000e+00      0s

Solved in 0 iterations and 0.01 seconds
Optimal objective  5.500000000e+03
Optimize a model with 16 rows, 12 columns and 36 nonzeros
Coefficient statistics:
  Matrix range     [1e+00, 1e+00]
  Objective range  [1e+01, 8e+01]
  Bounds range     [0e+00, 0e+00]
  RHS range        [1e+01, 1e+02]
Presolve removed 16 rows and 12 columns
Presolve time: 0.01s
Presolve: All rows and columns removed
Iteration    Objective       Primal Inf.    Dual Inf.      Time
       0    5.5000000e+03   0.000000e+00   0.000000e+00      0s

Solved in 0 iterations and 0.01 seconds
Optimal objective  5.500000000e+03

Gurobi 8.1.1 (mac64, Python) logging started Thu Jul 25 11:59:04 2019

Academic license - for non-commercial use only
Parameter updatemode unchanged
   Value: 1  Min: 0  Max: 1  Default: 1

Gurobi 8.1.1 (mac64, Python) logging started Thu Jul 25 13:10:56 2019

Academic license - for non-commercial use only
Parameter updatemode unchanged
   Value: 1  Min: 0  Max: 1  Default: 1

Gurobi 8.1.1 (mac64, Python) logging started Thu Jul 25 13:18:56 2019

Academic license - for non-commercial use only
Parameter updatemode unchanged
   Value: 1  Min: 0  Max: 1  Default: 1

Gurobi 8.1.1 (mac64, Python) logging started Thu Jul 25 13:19:07 2019

Academic license - for non-commercial use only
Parameter updatemode unchanged
   Value: 1  Min: 0  Max: 1  Default: 1

Gurobi 8.1.1 (mac64, Python) logging started Thu Jul 25 13:20:36 2019

Academic license - for non-commercial use only
Parameter updatemode unchanged
   Value: 1  Min: 0  Max: 1  Default: 1

Gurobi 8.1.1 (mac64, Python) logging started Thu Jul 25 13:21:07 2019

Academic license - for non-commercial use only
Parameter updatemode unchanged
   Value: 1  Min: 0  Max: 1  Default: 1

Gurobi 8.1.1 (mac64, Python) logging started Thu Jul 25 13:22:09 2019

Academic license - for non-commercial use only
Parameter updatemode unchanged
   Value: 1  Min: 0  Max: 1  Default: 1

Gurobi 8.1.1 (mac64, Python) logging started Thu Jul 25 13:22:28 2019

Academic license - for non-commercial use only
Parameter updatemode unchanged
   Value: 1  Min: 0  Max: 1  Default: 1

Gurobi 8.1.1 (mac64, Python) logging started Thu Jul 25 13:26:48 2019

Academic license - for non-commercial use only
Parameter updatemode unchanged
   Value: 1  Min: 0  Max: 1  Default: 1

Gurobi 8.1.1 (mac64, Python) logging started Thu Jul 25 15:09:24 2019

Academic license - for non-commercial use only
Parameter updatemode unchanged
   Value: 1  Min: 0  Max: 1  Default: 1

Gurobi 8.1.1 (mac64, Python) logging started Thu Jul 25 15:10:30 2019

Academic license - for non-commercial use only
Parameter updatemode unchanged
   Value: 1  Min: 0  Max: 1  Default: 1

Gurobi 8.1.1 (mac64, Python) logging started Thu Jul 25 15:11:33 2019

Academic license - for non-commercial use only
Parameter updatemode unchanged
   Value: 1  Min: 0  Max: 1  Default: 1

Gurobi 8.1.1 (mac64, Python) logging started Thu Jul 25 15:12:35 2019

Academic license - for non-commercial use only
Parameter updatemode unchanged
   Value: 1  Min: 0  Max: 1  Default: 1

Gurobi 8.1.1 (mac64, Python) logging started Thu Jul 25 15:14:01 2019

Academic license - for non-commercial use only
Parameter updatemode unchanged
   Value: 1  Min: 0  Max: 1  Default: 1

Gurobi 8.1.1 (mac64, Python) logging started Thu Jul 25 15:14:35 2019

Academic license - for non-commercial use only
Parameter updatemode unchanged
   Value: 1  Min: 0  Max: 1  Default: 1

Gurobi 8.1.1 (mac64, Python) logging started Thu Jul 25 15:15:26 2019

Academic license - for non-commercial use only
Parameter updatemode unchanged
   Value: 1  Min: 0  Max: 1  Default: 1

Gurobi 8.1.1 (mac64, Python) logging started Thu Jul 25 15:15:51 2019

Academic license - for non-commercial use only
Parameter updatemode unchanged
   Value: 1  Min: 0  Max: 1  Default: 1

Gurobi 8.1.1 (mac64, Python) logging started Thu Jul 25 15:16:14 2019

Academic license - for non-commercial use only
Parameter updatemode unchanged
   Value: 1  Min: 0  Max: 1  Default: 1

Gurobi 8.1.1 (mac64, Python) logging started Thu Jul 25 15:23:02 2019

Academic license - for non-commercial use only
Parameter updatemode unchanged
   Value: 1  Min: 0  Max: 1  Default: 1

Gurobi 8.1.1 (mac64, Python) logging started Thu Jul 25 15:23:39 2019

Academic license - for non-commercial use only
Parameter updatemode unchanged
   Value: 1  Min: 0  Max: 1  Default: 1

Gurobi 8.1.1 (mac64, Python) logging started Thu Jul 25 15:23:46 2019

Academic license - for non-commercial use only
Parameter updatemode unchanged
   Value: 1  Min: 0  Max: 1  Default: 1

Gurobi 8.1.1 (mac64, Python) logging started Thu Jul 25 15:26:37 2019

Academic license - for non-commercial use only
Parameter updatemode unchanged
   Value: 1  Min: 0  Max: 1  Default: 1

Gurobi 8.1.1 (mac64, Python) logging started Thu Jul 25 15:27:15 2019

Academic license - for non-commercial use only
Parameter updatemode unchanged
   Value: 1  Min: 0  Max: 1  Default: 1

Gurobi 8.1.1 (mac64, Python) logging started Thu Jul 25 15:27:53 2019

Academic license - for non-commercial use only
Parameter updatemode unchanged
   Value: 1  Min: 0  Max: 1  Default: 1

Gurobi 8.1.1 (mac64, Python) logging started Thu Jul 25 15:28:11 2019

Academic license - for non-commercial use only
Parameter updatemode unchanged
   Value: 1  Min: 0  Max: 1  Default: 1

Gurobi 8.1.1 (mac64, Python) logging started Thu Jul 25 15:29:11 2019

Academic license - for non-commercial use only
Parameter updatemode unchanged
   Value: 1  Min: 0  Max: 1  Default: 1

Gurobi 8.1.1 (mac64, Python) logging started Thu Jul 25 15:29:51 2019

Academic license - for non-commercial use only
Parameter updatemode unchanged
   Value: 1  Min: 0  Max: 1  Default: 1

Gurobi 8.1.1 (mac64, Python) logging started Thu Jul 25 15:30:10 2019

Academic license - for non-commercial use only
Parameter updatemode unchanged
   Value: 1  Min: 0  Max: 1  Default: 1

Gurobi 8.1.1 (mac64, Python) logging started Thu Jul 25 15:30:22 2019

Academic license - for non-commercial use only
Parameter updatemode unchanged
   Value: 1  Min: 0  Max: 1  Default: 1

Gurobi 8.1.1 (mac64, Python) logging started Thu Jul 25 15:30:53 2019

Academic license - for non-commercial use only
Parameter updatemode unchanged
   Value: 1  Min: 0  Max: 1  Default: 1

Gurobi 8.1.1 (mac64, Python) logging started Thu Jul 25 15:53:46 2019

Academic license - for non-commercial use only
Parameter updatemode unchanged
   Value: 1  Min: 0  Max: 1  Default: 1

Gurobi 8.1.1 (mac64, Python) logging started Thu Jul 25 15:54:36 2019

Academic license - for non-commercial use only
Parameter updatemode unchanged
   Value: 1  Min: 0  Max: 1  Default: 1

Gurobi 8.1.1 (mac64, Python) logging started Thu Jul 25 16:11:08 2019

Academic license - for non-commercial use only
Parameter updatemode unchanged
   Value: 1  Min: 0  Max: 1  Default: 1

Gurobi 8.1.1 (mac64, Python) logging started Thu Jul 25 16:12:19 2019

Academic license - for non-commercial use only
Parameter updatemode unchanged
   Value: 1  Min: 0  Max: 1  Default: 1

Gurobi 8.1.1 (mac64, Python) logging started Thu Jul 25 16:12:51 2019

Academic license - for non-commercial use only
Parameter updatemode unchanged
   Value: 1  Min: 0  Max: 1  Default: 1

Gurobi 8.1.1 (mac64, Python) logging started Thu Jul 25 16:13:31 2019

Academic license - for non-commercial use only
Parameter updatemode unchanged
   Value: 1  Min: 0  Max: 1  Default: 1

Gurobi 8.1.1 (mac64, Python) logging started Thu Jul 25 16:14:29 2019

Academic license - for non-commercial use only
Parameter updatemode unchanged
   Value: 1  Min: 0  Max: 1  Default: 1

Gurobi 8.1.1 (mac64, Python) logging started Thu Jul 25 16:14:58 2019

Academic license - for non-commercial use only
Parameter updatemode unchanged
   Value: 1  Min: 0  Max: 1  Default: 1

Gurobi 8.1.1 (mac64, Python) logging started Thu Jul 25 16:15:24 2019

Academic license - for non-commercial use only
Parameter updatemode unchanged
   Value: 1  Min: 0  Max: 1  Default: 1

Gurobi 8.1.1 (mac64, Python) logging started Thu Jul 25 16:32:10 2019

Academic license - for non-commercial use only
Parameter updatemode unchanged
   Value: 1  Min: 0  Max: 1  Default: 1

Gurobi 8.1.1 (mac64, Python) logging started Thu Jul 25 16:33:05 2019

Academic license - for non-commercial use only
Parameter updatemode unchanged
   Value: 1  Min: 0  Max: 1  Default: 1

Gurobi 8.1.1 (mac64, Python) logging started Thu Jul 25 17:24:43 2019

Academic license - for non-commercial use only
Parameter updatemode unchanged
   Value: 1  Min: 0  Max: 1  Default: 1

Gurobi 8.1.1 (mac64, Python) logging started Thu Jul 25 17:24:48 2019

Academic license - for non-commercial use only
Parameter updatemode unchanged
   Value: 1  Min: 0  Max: 1  Default: 1

Gurobi 8.1.1 (mac64, Python) logging started Thu Jul 25 17:26:01 2019

Academic license - for non-commercial use only
Parameter updatemode unchanged
   Value: 1  Min: 0  Max: 1  Default: 1

Gurobi 8.1.1 (mac64, Python) logging started Thu Jul 25 17:26:11 2019

Academic license - for non-commercial use only
Parameter updatemode unchanged
   Value: 1  Min: 0  Max: 1  Default: 1

Gurobi 8.1.1 (mac64, Python) logging started Thu Jul 25 17:26:34 2019

Academic license - for non-commercial use only
Parameter updatemode unchanged
   Value: 1  Min: 0  Max: 1  Default: 1

Gurobi 8.1.1 (mac64, Python) logging started Thu Jul 25 17:28:39 2019

Academic license - for non-commercial use only
Parameter updatemode unchanged
   Value: 1  Min: 0  Max: 1  Default: 1

Gurobi 8.1.1 (mac64, Python) logging started Thu Jul 25 17:29:59 2019

Academic license - for non-commercial use only
Parameter updatemode unchanged
   Value: 1  Min: 0  Max: 1  Default: 1

Gurobi 8.1.1 (mac64, Python) logging started Thu Jul 25 17:30:22 2019

Academic license - for non-commercial use only
Changed value of parameter updatemode to 0
   Prev: 1  Min: 0  Max: 1  Default: 1

Gurobi 8.1.1 (mac64, Python) logging started Thu Jul 25 17:31:05 2019

Academic license - for non-commercial use only
Changed value of parameter updatemode to 0
   Prev: 1  Min: 0  Max: 1  Default: 1

Gurobi 8.1.1 (mac64, Python) logging started Thu Jul 25 17:32:45 2019

Academic license - for non-commercial use only
Parameter updatemode unchanged
   Value: 1  Min: 0  Max: 1  Default: 1

Gurobi 8.1.1 (mac64, Python) logging started Thu Jul 25 21:45:06 2019

Academic license - for non-commercial use only
Parameter updatemode unchanged
   Value: 1  Min: 0  Max: 1  Default: 1
